NAME          
ROWS
 N  OBJ
 L  c1
 L  c2
 L  c3
COLUMNS
    MARKER    'MARKER'                 'INTORG'
    x[1]      c1        638
    x[1]      c2        48
    x[1]      c3        392
    x[1]      OBJ       -301
    x[2]      c1        709
    x[2]      c2        840
    x[2]      c3        171
    x[2]      OBJ       -217
    x[3]      c1        346
    x[3]      c2        239
    x[3]      c3        10
    x[3]      OBJ       -39
    x[4]      c1        776
    x[4]      c2        235
    x[4]      c3        502
    x[4]      OBJ       -377
    x[5]      c1        949
    x[5]      c2        349
    x[5]      c3        637
    x[5]      OBJ       -287
    x[6]      c1        541
    x[6]      c2        203
    x[6]      c3        617
    x[6]      OBJ       -385
    x[7]      c1        442
    x[7]      c2        926
    x[7]      c3        246
    x[7]      OBJ       -241
    x[8]      c1        451
    x[8]      c2        794
    x[8]      c3        631
    x[8]      OBJ       -300
    x[9]      c1        687
    x[9]      c2        184
    x[9]      c3        966
    x[9]      OBJ       -457
    x[10]     c1        814
    x[10]     c2        925
    x[10]     c3        64
    x[10]     OBJ       -592
RHS
    rhs       c1        3176
    rhs       c2        2372
    rhs       c3        2118
RANGES
BOUNDS
 BV bounds    x[1]
 BV bounds    x[2]
 BV bounds    x[3]
 BV bounds    x[4]
 BV bounds    x[5]
 BV bounds    x[6]
 BV bounds    x[7]
 BV bounds    x[8]
 BV bounds    x[9]
 BV bounds    x[10]
ENDATA
